; benchmark generated from python API
(set-info :status unknown)
(declare-fun x_months () Int)
(declare-fun x_beta () Int)
(declare-fun y_months () Int)
(declare-fun y_beta () Int)
(assert
 (<= (- 1202) x_months))
(assert
 (>= 1209 x_months))
(assert
 (>= x_beta 0))
(assert
 (let ((?x2970 (+ x_months 24003)))
 (let ((?x290 (- ?x2970 (* (div (- ?x2970 1) 12) 12))))
 (let ((?x214 (ite (or (= ?x290 4) (= ?x290 6) (= ?x290 9) (= ?x290 11)) 30 31)))
 (let (($x2407 (and (= (mod (div (- ?x2970 1) 12) 4) 0) (and (distinct (mod (div (- ?x2970 1) 12) 100) 0) true))))
 (let ((?x685 (ite (or $x2407 (= (mod (div (- ?x2970 1) 12) 400) 0)) 29 28)))
 (< x_beta (ite (= ?x290 2) ?x685 ?x214))))))))
(assert
 (<= (- 1202) y_months))
(assert
 (>= 1209 y_months))
(assert
 (>= y_beta 0))
(assert
 (let ((?x560 (+ y_months 24003)))
 (let ((?x2506 (- ?x560 (* (div (- ?x560 1) 12) 12))))
 (let ((?x1628 (ite (or (= ?x2506 4) (= ?x2506 6) (= ?x2506 9) (= ?x2506 11)) 30 31)))
 (let (($x2580 (and (= (mod (div (- ?x560 1) 12) 4) 0) (and (distinct (mod (div (- ?x560 1) 12) 100) 0) true))))
 (let ((?x1632 (ite (or $x2580 (= (mod (div (- ?x560 1) 12) 400) 0)) 29 28)))
 (< y_beta (ite (= ?x2506 2) ?x1632 ?x1628))))))))
(assert
 (and (= x_months (- (+ (* 2022 12) 1) 24003)) (= 14 x_beta)))
(assert
 (let ((?x2504 (+ x_beta 1)))
 (let ((?x761 (+ (+ x_months 13) 24003)))
 (let ((?x857 (- ?x761 (* (div (- ?x761 1) 12) 12))))
 (let ((?x2062 (ite (or (= ?x857 4) (= ?x857 6) (= ?x857 9) (= ?x857 11)) 30 31)))
 (let (($x1281 (and (= (mod (div (- ?x761 1) 12) 4) 0) (and (distinct (mod (div (- ?x761 1) 12) 100) 0) true))))
 (let (($x1152 (or $x1281 (= (mod (div (- ?x761 1) 12) 400) 0))))
 (let ((?x581 (ite (= ?x857 2) (ite $x1152 29 28) ?x2062)))
 (let ((?x2456 (ite (> 1 ?x2504) 1 (ite (> ?x2504 ?x581) ?x581 ?x2504))))
 (let ((?x1811 (ite (> 1 ?x2456) 1 (ite (> ?x2456 ?x581) ?x581 ?x2456))))
 (let ((?x2308 (ite (= 2 ?x857) (ite $x1152 31 31) (ite (= 1 ?x857) (ite $x1152 0 0) 0))))
 (let ((?x2687 (ite (= 4 ?x857) (ite $x1152 91 90) (ite (= 3 ?x857) (ite $x1152 60 59) ?x2308))))
 (let ((?x1468 (ite (= 6 ?x857) (ite $x1152 152 151) (ite (= 5 ?x857) (ite $x1152 121 120) ?x2687))))
 (let ((?x490 (ite (= 8 ?x857) (ite $x1152 213 212) (ite (= 7 ?x857) (ite $x1152 182 181) ?x1468))))
 (let ((?x2494 (ite (= 10 ?x857) (ite $x1152 274 273) (ite (= 9 ?x857) (ite $x1152 244 243) ?x490))))
 (let ((?x1793 (ite (= 12 ?x857) (ite $x1152 335 334) (ite (= 11 ?x857) (ite $x1152 305 304) ?x2494))))
 (let ((?x2371 (+ (* 365 (- (div (- ?x761 1) 12) 1)) (div (- (div (- ?x761 1) 12) 1) 4))))
 (let ((?x1777 (+ (- ?x2371 (div (- (div (- ?x761 1) 12) 1) 100)) (div (- (div (- ?x761 1) 12) 1) 400))))
 (let ((?x1023 (+ (+ (- (+ (+ ?x1777 ?x1793) (- ?x1811 1)) 730179) 40) 730179)))
 (let ((?x1059 (mod ?x1023 146097)))
 (let ((?x2476 (div ?x1059 36524)))
 (let ((?x3270 (ite (<= 4 ?x2476) 3 ?x2476)))
 (let ((?x2822 (- ?x1059 (* ?x3270 36524))))
 (let ((?x1955 (mod ?x2822 1461)))
 (let ((?x1871 (div ?x1955 365)))
 (let ((?x2430 (ite (<= 4 ?x1871) 3 ?x1871)))
 (let ((?x1187 (+ (+ (* (div ?x1023 146097) 400) (* ?x3270 100)) (* (div ?x2822 1461) 4))))
 (let ((?x3175 (+ (+ ?x1187 ?x2430) 1)))
 (let (($x767 (or (and (= (mod ?x3175 4) 0) (and (distinct (mod ?x3175 100) 0) true)) (= (mod ?x3175 400) 0))))
 (let ((?x2147 (- ?x1955 (* ?x2430 365))))
 (let ((?x2060 (ite $x767 31 31)))
 (let (($x580 (>= ?x2147 ?x2060)))
 (let ((?x2651 (ite $x580 (+ (- ?x2147 ?x2060) 1) (+ (- ?x2147 (ite $x767 0 0)) 1))))
 (let ((?x660 (ite $x767 60 59)))
 (let (($x2199 (>= ?x2147 ?x660)))
 (let ((?x874 (ite $x767 91 90)))
 (let (($x2523 (>= ?x2147 ?x874)))
 (let ((?x2149 (ite $x2523 (+ (- ?x2147 ?x874) 1) (ite $x2199 (+ (- ?x2147 ?x660) 1) ?x2651))))
 (let ((?x1141 (ite $x767 121 120)))
 (let (($x3364 (>= ?x2147 ?x1141)))
 (let ((?x657 (ite $x767 152 151)))
 (let (($x3296 (>= ?x2147 ?x657)))
 (let ((?x2201 (ite $x3296 (+ (- ?x2147 ?x657) 1) (ite $x3364 (+ (- ?x2147 ?x1141) 1) ?x2149))))
 (let ((?x575 (ite $x767 182 181)))
 (let (($x1225 (>= ?x2147 ?x575)))
 (let ((?x2173 (ite $x767 213 212)))
 (let (($x447 (>= ?x2147 ?x2173)))
 (let ((?x356 (ite $x447 (+ (- ?x2147 ?x2173) 1) (ite $x1225 (+ (- ?x2147 ?x575) 1) ?x2201))))
 (let ((?x618 (ite $x767 244 243)))
 (let (($x331 (>= ?x2147 ?x618)))
 (let ((?x2047 (ite $x767 274 273)))
 (let (($x2912 (>= ?x2147 ?x2047)))
 (let ((?x2374 (ite $x2912 (+ (- ?x2147 ?x2047) 1) (ite $x331 (+ (- ?x2147 ?x618) 1) ?x356))))
 (let ((?x2040 (ite $x767 305 304)))
 (let (($x1355 (>= ?x2147 ?x2040)))
 (let ((?x2340 (ite $x767 335 334)))
 (let (($x1854 (>= ?x2147 ?x2340)))
 (let ((?x3391 (ite $x1854 (+ (- ?x2147 ?x2340) 1) (ite $x1355 (+ (- ?x2147 ?x2040) 1) ?x2374))))
 (let (($x1155 (= 40 0)))
 (let ((?x571 (ite $x3364 5 (ite $x2523 4 (ite $x2199 3 (ite $x580 2 1))))))
 (let ((?x249 (ite $x331 9 (ite $x447 8 (ite $x1225 7 (ite $x3296 6 ?x571))))))
 (let ((?x2341 (ite $x1854 12 (ite $x1355 11 (ite $x2912 10 ?x249)))))
 (let ((?x944 (+ (* (ite $x1155 (div (- ?x761 1) 12) ?x3175) 12) (ite $x1155 ?x857 ?x2341))))
 (and (= y_months (- ?x944 24003)) (= y_beta (- (ite $x1155 ?x1811 ?x3391) 1))))))))))))))))))))))))))))))))))))))))))))))))))))))))))))))))))
(assert
 (let (($x3260 (and (= y_months (- (+ (* 2023 12) 2) 24003)) (= 23 y_beta))))
 (not $x3260)))
(assert
 (and (= x_months (- (+ (* 2022 12) 1) 24003)) (= 14 x_beta)))
(assert
 (and (= y_months (- (+ (* 2023 12) 3) 24003)) (= 26 y_beta)))
(check-sat)
